c This is QMaxSAT 2017 based on 14.07
c This is Glucose 3.0
c This is MiniSat 2.2.0
c WARNING: for repeatability, setting FPU to use double precision
c card = mrwto, comp = 0, pmodel = 0, narr = 15, mct = 99, verb = 0
cr firstCPXsol 0 0 0
c top = 824631
c |  Number of variables:    25538                                            |
c |  Number of clauses:      2618737                                          |
c |  Weight of hard clauses: 824631                                           |
c |  Number of soft clauses: 186690                                           |
c |  Number of unit soft clauses: 0                                           |
c |  Maximum Cardinality (by unit): 17353170     (0           )               |
c last restart ## conflicts  :  0 961 
o 621 | cpuTime 0.295073 s
c Sum of weights = 1156878
c A number of soft clauses remained = 12446
c MRWTO encoding for Pseudo-Boolean Constraints
c sizeMax=621
c No.0 Divisor=9	generated by pow1
c No.1 Divisor=9	generated by pow1
c No.2 Divisor=9	generated by pow1
c p0= 9	p1= 9	p2= 9	
c number of digits = 4
c linkingVar[0].size = 9, linkingVar[1].size = 9, linkingVar[2].size = 8, linkingVar[3].size = 1, 
c Pseudo-Boolean Constraints: 228818 variables and 1669081 clauses
c Sum of weights = 1156878
c A number of soft clauses remained = 12446
c MRWTO encoding for Pseudo-Boolean Constraints
c sizeMax=621
c No.0 Divisor=9	generated by pow1
c No.1 Divisor=9	generated by pow1
c No.2 Divisor=9	generated by pow1
c p0= 9	p1= 9	p2= 9	
c number of digits = 4
c linkingVar[0].size = 9, linkingVar[1].size = 9, linkingVar[2].size = 8, linkingVar[3].size = 1, 
c Pseudo-Boolean Constraints: 228818 variables and 1669081 clauses
c Sum of weights = 1156878
c A number of soft clauses remained = 12446
c MRWTO encoding for Pseudo-Boolean Constraints
c sizeMax=621
c No.0 Divisor=9	generated by pow1
c No.1 Divisor=9	generated by pow1
c No.2 Divisor=9	generated by pow1
c p0= 9	p1= 9	p2= 9	
c number of digits = 4
c linkingVar[0].size = 9, linkingVar[1].size = 9, linkingVar[2].size = 8, linkingVar[3].size = 1, 
c Pseudo-Boolean Constraints: 228818 variables and 1669081 clauses
c Sum of weights = 1156878
c A number of soft clauses remained = 12446
c MRWTO encoding for Pseudo-Boolean Constraints
c sizeMax=621
c No.0 Divisor=9	generated by pow1
c No.1 Divisor=9	generated by pow1
c No.2 Divisor=9	generated by pow1
c p0= 9	p1= 9	p2= 9	
c number of digits = 4
c linkingVar[0].size = 9, linkingVar[1].size = 9, linkingVar[2].size = 8, linkingVar[3].size = 1, 
c Pseudo-Boolean Constraints: 228818 variables and 1669081 clauses
c Sum of weights = 1156878
c A number of soft clauses remained = 12446
c MRWTO encoding for Pseudo-Boolean Constraints
c sizeMax=621
c No.0 Divisor=9	generated by pow1
c No.1 Divisor=9	generated by pow1
c No.2 Divisor=9	generated by pow1
c p0= 9	p1= 9	p2= 9	
c number of digits = 4
c linkingVar[0].size = 9, linkingVar[1].size = 9, linkingVar[2].size = 8, linkingVar[3].size = 1, 
c Pseudo-Boolean Constraints: 228818 variables and 1669081 clauses
c Sum of weights = 1156878
c A number of soft clauses remained = 12446
c MRWTO encoding for Pseudo-Boolean Constraints
c sizeMax=621
c No.0 Divisor=9	generated by pow1
c No.1 Divisor=9	generated by pow1
c No.2 Divisor=9	generated by pow1
c p0= 9	p1= 9	p2= 9	
c number of digits = 4
c linkingVar[0].size = 9, linkingVar[1].size = 9, linkingVar[2].size = 8, linkingVar[3].size = 1, 
c Pseudo-Boolean Constraints: 228818 variables and 1669081 clauses
c Sum of weights = 1156878
c A number of soft clauses remained = 12446
c MRWTO encoding for Pseudo-Boolean Constraints
c sizeMax=621
c No.0 Divisor=9	generated by pow1
c No.1 Divisor=9	generated by pow1
c No.2 Divisor=9	generated by pow1
c p0= 9	p1= 9	p2= 9	
c number of digits = 4
c linkingVar[0].size = 9, linkingVar[1].size = 9, linkingVar[2].size = 8, linkingVar[3].size = 1, 
c Pseudo-Boolean Constraints: 228818 variables and 1669081 clauses
c Sum of weights = 1156878
c A number of soft clauses remained = 12446
c MRWTO encoding for Pseudo-Boolean Constraints
c sizeMax=621
c No.0 Divisor=9	generated by pow1
c No.1 Divisor=9	generated by pow1
c No.2 Divisor=9	generated by pow1
c p0= 9	p1= 9	p2= 9	
c number of digits = 4
c linkingVar[0].size = 9, linkingVar[1].size = 9, linkingVar[2].size = 8, linkingVar[3].size = 1, 
c Pseudo-Boolean Constraints: 228818 variables and 1669081 clauses
c Sum of weights = 1156878
c A number of soft clauses remained = 12446
c MRWTO encoding for Pseudo-Boolean Constraints
c sizeMax=621
c No.0 Divisor=9	generated by pow1
c No.1 Divisor=9	generated by pow1
c No.2 Divisor=9	generated by pow1
c p0= 9	p1= 9	p2= 9	
c number of digits = 4
c linkingVar[0].size = 9, linkingVar[1].size = 9, linkingVar[2].size = 8, linkingVar[3].size = 1, 
c Pseudo-Boolean Constraints: 228818 variables and 1669081 clauses
c Sum of weights = 1156878
c A number of soft clauses remained = 12446
c MRWTO encoding for Pseudo-Boolean Constraints
c sizeMax=621
c No.0 Divisor=9	generated by pow1
c No.1 Divisor=9	generated by pow1
c No.2 Divisor=9	generated by pow1
c p0= 9	p1= 9	p2= 9	
c number of digits = 4
c linkingVar[0].size = 9, linkingVar[1].size = 9, linkingVar[2].size = 8, linkingVar[3].size = 1, 
c Pseudo-Boolean Constraints: 228818 variables and 1669081 clauses
c Sum of weights = 1156878
c A number of soft clauses remained = 12446
c MRWTO encoding for Pseudo-Boolean Constraints
c sizeMax=621
c No.0 Divisor=9	generated by pow1
c No.1 Divisor=9	generated by pow1
c No.2 Divisor=9	generated by pow1
c p0= 9	p1= 9	p2= 9	
c number of digits = 4
c linkingVar[0].size = 9, linkingVar[1].size = 9, linkingVar[2].size = 8, linkingVar[3].size = 1, 
c Pseudo-Boolean Constraints: 228818 variables and 1669081 clauses
c Sum of weights = 1156878
c A number of soft clauses remained = 12446
c MRWTO encoding for Pseudo-Boolean Constraints
c sizeMax=621
c No.0 Divisor=9	generated by pow1
c No.1 Divisor=9	generated by pow1
c No.2 Divisor=9	generated by pow1
c p0= 9	p1= 9	p2= 9	
c number of digits = 4
c linkingVar[0].size = 9, linkingVar[1].size = 9, linkingVar[2].size = 8, linkingVar[3].size = 1, 
c Pseudo-Boolean Constraints: 228818 variables and 1669081 clauses
c Sum of weights = 1156878
c A number of soft clauses remained = 12446
c MRWTO encoding for Pseudo-Boolean Constraints
c sizeMax=621
c No.0 Divisor=9	generated by pow1
c No.1 Divisor=9	generated by pow1
c No.2 Divisor=9	generated by pow1
c p0= 9	p1= 9	p2= 9	
c number of digits = 4
c linkingVar[0].size = 9, linkingVar[1].size = 9, linkingVar[2].size = 8, linkingVar[3].size = 1, 
c Pseudo-Boolean Constraints: 228818 variables and 1669081 clauses
c Sum of weights = 1156878
c A number of soft clauses remained = 12446
c MRWTO encoding for Pseudo-Boolean Constraints
c sizeMax=621
c No.0 Divisor=9	generated by pow1
c No.1 Divisor=9	generated by pow1
c No.2 Divisor=9	generated by pow1
c p0= 9	p1= 9	p2= 9	
c number of digits = 4
c linkingVar[0].size = 9, linkingVar[1].size = 9, linkingVar[2].size = 8, linkingVar[3].size = 1, 
c Pseudo-Boolean Constraints: 228818 variables and 1669081 clauses
c Sum of weights = 1156878
c A number of soft clauses remained = 12446
c MRWTO encoding for Pseudo-Boolean Constraints
c sizeMax=621
c No.0 Divisor=9	generated by pow1
c No.1 Divisor=9	generated by pow1
c No.2 Divisor=9	generated by pow1
c p0= 9	p1= 9	p2= 9	
c number of digits = 4
c linkingVar[0].size = 9, linkingVar[1].size = 9, linkingVar[2].size = 8, linkingVar[3].size = 1, 
c Pseudo-Boolean Constraints: 228818 variables and 1669081 clauses
s UNKNOWN
c Search is stopped by a limit (maybe time-limit)
cr positiVarArr: [ | 16(1->2) | 130(1->3) | 244(1->4) | 358(1->5) | 472(1->6) | 586(1->7) | 700(1->8) | 814(1->9) | 928(1->10) | 1042(1->11) | 1156(1->12) | 1270(1->13) | 1384(1->14) | 1498(1->15) | 1612(1->16) | 1726(2->17) | 1840(3->18) | 1954(4->19) | 2068(5->20) | 2182(6->21) | 2296(7->22) | 2410(8->23) | 2524(9->24) | 2638(10->25) | 2752(11->26) | 2866(12->27) | 2980(13->28) | 3094(14->29) | 3208(15->30) | 3322(16->31) | 3436(17->32) | 3550(18->33) | 3664(19->34) | 3778(20->35) | 3892(21->36) | 4006(22->37) | 4120(23->38) | 4234(24->39) | 4348(25->40) | 4462(26->41) | 4576(27->42) | 4690(28->43) | 4804(29->44) | 4918(30->45) | 5032(31->46) | 5146(32->47) | 5260(33->48) | 5374(34->49) | 5488(35->50) | 5602(36->51) | 5716(37->52) | 5830(38->53) | 5944(39->54) | 6058(40->55) | 6172(41->56) | 6286(42->57) | 6400(43->58) | 6514(44->59) | 6628(45->60) | 6742(46->61) | 6856(47->62) | 6970(48->63) | 7084(49->64) | 7198(50->65) | 7312(51->66) | 7426(52->67) | 7540(53->68) | 7654(54->69) | 7768(55->70) | 7882(56->71) | 7996(57->72) | 8110(58->73) | 8224(59->74) | 8338(60->75) | 8452(61->76) | 8566(62->77) | 8680(63->78) | 8794(64->79) | 8908(65->80) | 9022(66->81) | 9136(67->82) | 9250(68->83) | 9364(69->84) | 9478(70->85) | 9592(71->86) | 9706(72->87) | 9820(73->88) | 9934(74->89) | 10048(75->90) | 10162(76->91) | 10276(77->92) | 10390(78->93) | 10504(79->94) | 10618(80->95) | 10732(81->96) | 10846(82->97) | 10960(83->98) | 11074(84->99) | 11089(85->1) | 11201(86->1) | 11313(87->1) | 11425(88->1) | 11537(89->1) | 11649(90->1) | 11761(91->1) | 11873(92->1) | 11985(93->1) | 12097(94->1) | 12209(95->1) | 12321(96->1) | 12433(97->1) | 12545(98->1) | 12657(99->1) | ]
cr the 1-th chain: [ 1->2->17->32->47->62->77->92->1 ] (#non-depot=7) {#cumul.=8}
cr the 2-th chain: [ 1->3->18->33->48->63->78->93->1 ] (#non-depot=7) {#cumul.=15}
cr the 3-th chain: [ 1->4->19->34->49->64->79->94->1 ] (#non-depot=7) {#cumul.=22}
cr the 4-th chain: [ 1->5->20->35->50->65->80->95->1 ] (#non-depot=7) {#cumul.=29}
cr the 5-th chain: [ 1->6->21->36->51->66->81->96->1 ] (#non-depot=7) {#cumul.=36}
cr the 6-th chain: [ 1->7->22->37->52->67->82->97->1 ] (#non-depot=7) {#cumul.=43}
cr the 7-th chain: [ 1->8->23->38->53->68->83->98->1 ] (#non-depot=7) {#cumul.=50}
cr the 8-th chain: [ 1->9->24->39->54->69->84->99->1 ] (#non-depot=7) {#cumul.=57}
cr the 9-th chain: [ 1->10->25->40->55->70->85->1 ] (#non-depot=6) {#cumul.=63}
cr the 10-th chain: [ 1->11->26->41->56->71->86->1 ] (#non-depot=6) {#cumul.=69}
cr the 11-th chain: [ 1->12->27->42->57->72->87->1 ] (#non-depot=6) {#cumul.=75}
cr the 12-th chain: [ 1->13->28->43->58->73->88->1 ] (#non-depot=6) {#cumul.=81}
cr the 13-th chain: [ 1->14->29->44->59->74->89->1 ] (#non-depot=6) {#cumul.=87}
cr the 14-th chain: [ 1->15->30->45->60->75->90->1 ] (#non-depot=6) {#cumul.=93}
cr the 15-th chain: [ 1->16->31->46->61->76->91->1 ] (#non-depot=6) {#cumul.=99}
c Latest Answer = 0 by 1 loops
c restarts              : 14586
c conflicts             : 2169050        (603 /sec)
c decisions             : 137723417      (0.00 % random) (38280 /sec)
c propagations          : 33578142032    (9333094 /sec)
c conflict literals     : 285689634      (35.49 % deleted)
c Memory used           : 3767.00 MB
c CPU time              : 3597.75 s
